Solver command line: ['C:\\gurobi1002\\win64\\bin\\gurobi.bat']

Set parameter Username
Academic license - for non-commercial use only - expires 2024-08-20
Read LP format model from file C:\Users\mhafeman\AppData\Local\Temp\tmpgxr25sqx.pyomo.lp
Reading time = 1.34 seconds
obj: 297841 rows, 262799 columns, 709547 nonzeros
Gurobi Optimizer version 10.0.2 build v10.0.2rc0 (win64)

CPU model: AMD Ryzen 7 3800X 8-Core Processor, instruction set [SSE2|AVX|AVX2]
Thread count: 8 physical cores, 16 logical processors, using up to 16 threads

Optimize a model with 297841 rows, 262799 columns and 709547 nonzeros
Model fingerprint: 0xe8cfc24e
Model has 8759 quadratic constraints
Variable types: 201480 continuous, 61319 integer (43800 binary)
Coefficient statistics:
  Matrix range     [1e-04, 3e+02]
  QMatrix range    [1e+00, 1e+00]
  Objective range  [1e-02, 3e+02]
  Bounds range     [1e+00, 3e+00]
  RHS range        [1e-03, 1e+03]
Presolve removed 236150 rows and 192348 columns
Presolve time: 0.95s
Presolved: 61691 rows, 70451 columns, 168866 nonzeros
Variable types: 36725 continuous, 33726 integer (33726 binary)
Deterministic concurrent LP optimizer: primal and dual simplex
Showing first log only...

Warning: Markowitz tolerance tightened to 0.5
Concurrent spin time: 0.06s

Solved with dual simplex

Root relaxation: objective -5.450496e+07, 18155 iterations, 0.44 seconds (0.40 work units)

    Nodes    |    Current Node    |     Objective Bounds      |     Work
 Expl Unexpl |  Obj  Depth IntInf | Incumbent    BestBd   Gap | It/Node Time

     0     0 -5.450e+07    0  216          - -5.450e+07      -     -    1s
H    0     0                    -5.45027e+07 -5.450e+07  0.00%     -    2s

Explored 1 nodes (21357 simplex iterations) in 2.08 seconds (2.20 work units)
Thread count was 16 (of 16 available processors)

Solution count 1: -5.45027e+07 

Optimal solution found (tolerance 1.00e-04)
Best objective -5.450273817127e+07, best bound -5.450495507586e+07, gap 0.0041%

